(set-logic QF_NRA)
(set-info :source |Benchmarks generated from hycomp (https://es-static.fbk.eu/tools/hycomp/). BMC instances of non-linear hybrid automata taken from: Alessandro Cimatti, Sergio Mover, Stefano Tonetta, A quantifier-free SMT encoding of non-linear hybrid automata, FMCAD 2012 and Alessandro Cimatti, Sergio Mover, Stefano Tonetta, Quantier-free encoding of invariants for Hybrid Systems, Formal Methods in System Design. This instance solves a BMC problem of depth 2 and uses the quantifier free encoding with lemmas encoding. Contacts: Sergio Mover (mover@fbk.eu), Stefano Tonetta (tonettas@fbk.eu), Alessandro Cimatti (cimatti@fbk.eu).|)
(set-info :smt-lib-version 2.0)
(set-info :category "industrial")
(set-info :status unsat)
;; MathSAT API call trace
;; generated on Mon Mar 19 10:47:44 2012
(declare-fun b.speed_x__AT1 () Real)
(declare-fun b.time__AT1 () Real)
(declare-fun b.x__AT1 () Real)
(declare-fun b.event_is_timed__AT1 () Bool)
(declare-fun b.counter.0__AT1 () Bool)
(declare-fun b.EVENT.1__AT0 () Bool)
(declare-fun b.speed_loss__AT0 () Real)
(declare-fun b.counter.1__AT1 () Bool)
(declare-fun b.speed_x__AT0 () Real)
(declare-fun b.counter.2__AT1 () Bool)
(declare-fun b.time__AT0 () Real)
(declare-fun b.counter.2__AT0 () Bool)
(declare-fun b.counter.3__AT1 () Bool)
(declare-fun b.event_is_timed__AT2 () Bool)
(declare-fun b.bool_atom__AT1 () Bool)
(declare-fun b.x__AT0 () Real)
(declare-fun b.speed_y__AT1 () Real)
(declare-fun b.delta__AT1 () Real)
(declare-fun b.bool_atom__AT0 () Bool)
(declare-fun b.y__AT0 () Real)
(declare-fun b.EVENT.1__AT1 () Bool)
(declare-fun b.time__AT2 () Real)
(declare-fun b.EVENT.0__AT1 () Bool)
(declare-fun b.counter.0__AT0 () Bool)
(declare-fun b.y__AT2 () Real)
(declare-fun b.delta__AT2 () Real)
(declare-fun b.delta__AT0 () Real)
(declare-fun b.counter.1__AT0 () Bool)
(declare-fun b.counter.0__AT2 () Bool)
(declare-fun b.x__AT2 () Real)
(declare-fun b.y__AT1 () Real)
(declare-fun b.EVENT.0__AT2 () Bool)
(declare-fun b.EVENT.0__AT0 () Bool)
(declare-fun b.counter.1__AT2 () Bool)
(declare-fun b.EVENT.1__AT2 () Bool)
(declare-fun b.counter.2__AT2 () Bool)
(declare-fun b.counter.3__AT2 () Bool)
(declare-fun b.bool_atom__AT2 () Bool)
(declare-fun b.speed_y__AT0 () Real)
(declare-fun b.speed_x__AT2 () Real)
(declare-fun b.speed_y__AT2 () Real)
(declare-fun b.event_is_timed__AT0 () Bool)
(declare-fun b.counter.3__AT0 () Bool)
(assert (let ((.def_712 (* (- 1.0) b.speed_x__AT2)))
(let ((.def_713 (* b.speed_x__AT2 .def_712)))
(let ((.def_714 (* (- 1.0) .def_713)))
(let ((.def_742 (* 2.0 .def_714)))
(let ((.def_800 (* (- 1.0) .def_742)))
(let ((.def_801 (* b.delta__AT2 .def_800)))
(let ((.def_802 (* (- 5.0) .def_801)))
(let ((.def_652 (* (- 1.0) b.x__AT2)))
(let ((.def_725 (* b.speed_x__AT2 .def_652)))
(let ((.def_747 (* (- 5.0) .def_725)))
(let ((.def_807 (+ .def_747 .def_802)))
(let ((.def_720 (* b.x__AT2 .def_712)))
(let ((.def_745 (* (- 5.0) .def_720)))
(let ((.def_808 (+ .def_745 .def_807)))
(let ((.def_749 (* (- 49.0) b.delta__AT2)))
(let ((.def_809 (+ .def_749 .def_808)))
(let ((.def_751 (* 5.0 b.speed_y__AT2)))
(let ((.def_810 (+ .def_751 .def_809)))
(let ((.def_813 (<= 0.0 .def_810)))
(let ((.def_820 (not .def_813)))
(let ((.def_726 (* (- 1.0) .def_725)))
(let ((.def_721 (* (- 1.0) .def_720)))
(let ((.def_759 (+ .def_721 .def_726)))
(let ((.def_760 (+ b.speed_y__AT2 .def_759)))
(let ((.def_761 (<= 0.0 .def_760)))
(let ((.def_821 (or .def_761 .def_820)))
(let ((.def_811 (<= .def_810 0.0 )))
(let ((.def_775 (<= .def_760 0.0 )))
(let ((.def_776 (not .def_775)))
(let ((.def_819 (or .def_776 .def_811)))
(let ((.def_822 (and .def_819 .def_821)))
(let ((.def_791 (<= .def_713 (- (/ 49 10)))))
(let ((.def_823 (or .def_791 .def_822)))
(let ((.def_815 (not .def_811)))
(let ((.def_816 (or .def_775 .def_815)))
(let ((.def_762 (not .def_761)))
(let ((.def_814 (or .def_762 .def_813)))
(let ((.def_817 (and .def_814 .def_816)))
(let ((.def_796 (<= (- (/ 49 10)) .def_713)))
(let ((.def_818 (or .def_796 .def_817)))
(let ((.def_824 (and .def_818 .def_823)))
(let ((.def_812 (and .def_775 .def_811)))
(let ((.def_825 (and .def_812 .def_824)))
(let ((.def_743 (* b.delta__AT2 .def_742)))
(let ((.def_744 (* 5.0 .def_743)))
(let ((.def_753 (+ .def_747 .def_744)))
(let ((.def_754 (+ .def_745 .def_753)))
(let ((.def_755 (+ .def_749 .def_754)))
(let ((.def_756 (+ .def_751 .def_755)))
(let ((.def_773 (<= .def_756 0.0 )))
(let ((.def_774 (not .def_773)))
(let ((.def_794 (or .def_774 .def_775)))
(let ((.def_757 (<= 0.0 .def_756)))
(let ((.def_793 (or .def_757 .def_762)))
(let ((.def_795 (and .def_793 .def_794)))
(let ((.def_797 (or .def_795 .def_796)))
(let ((.def_758 (not .def_757)))
(let ((.def_789 (or .def_758 .def_761)))
(let ((.def_788 (or .def_773 .def_776)))
(let ((.def_790 (and .def_788 .def_789)))
(let ((.def_792 (or .def_790 .def_791)))
(let ((.def_798 (and .def_792 .def_797)))
(let ((.def_787 (and .def_757 .def_761)))
(let ((.def_799 (and .def_787 .def_798)))
(let ((.def_826 (or .def_799 .def_825)))
(let ((.def_727 (* b.delta__AT2 .def_726)))
(let ((.def_728 (* 10.0 .def_727)))
(let ((.def_722 (* b.delta__AT2 .def_721)))
(let ((.def_723 (* 10.0 .def_722)))
(let ((.def_734 (+ .def_723 .def_728)))
(let ((.def_711 (* b.delta__AT2 b.delta__AT2)))
(let ((.def_715 (* .def_711 .def_714)))
(let ((.def_716 (* 10.0 .def_715)))
(let ((.def_735 (+ .def_716 .def_734)))
(let ((.def_718 (* (- 49.0) .def_711)))
(let ((.def_736 (+ .def_718 .def_735)))
(let ((.def_709 (* b.speed_y__AT2 b.delta__AT2)))
(let ((.def_710 (* 10.0 .def_709)))
(let ((.def_737 (+ .def_710 .def_736)))
(let ((.def_698 (* b.x__AT2 .def_652)))
(let ((.def_730 (* (- 10.0) .def_698)))
(let ((.def_738 (+ .def_730 .def_737)))
(let ((.def_732 (* 10.0 b.y__AT2)))
(let ((.def_739 (+ .def_732 .def_738)))
(let ((.def_767 (<= .def_739 0.0 )))
(let ((.def_781 (not .def_767)))
(let ((.def_765 (<= b.y__AT2 .def_698)))
(let ((.def_782 (or .def_765 .def_781)))
(let ((.def_699 (<= .def_698 b.y__AT2)))
(let ((.def_779 (not .def_699)))
(let ((.def_740 (<= 0.0 .def_739)))
(let ((.def_780 (or .def_740 .def_779)))
(let ((.def_783 (and .def_780 .def_782)))
(let ((.def_777 (or .def_774 .def_776)))
(let ((.def_778 (not .def_777)))
(let ((.def_784 (or .def_778 .def_783)))
(let ((.def_769 (not .def_740)))
(let ((.def_770 (or .def_699 .def_769)))
(let ((.def_766 (not .def_765)))
(let ((.def_768 (or .def_766 .def_767)))
(let ((.def_771 (and .def_768 .def_770)))
(let ((.def_763 (or .def_758 .def_762)))
(let ((.def_764 (not .def_763)))
(let ((.def_772 (or .def_764 .def_771)))
(let ((.def_785 (and .def_772 .def_784)))
(let ((.def_741 (and .def_699 .def_740)))
(let ((.def_786 (and .def_741 .def_785)))
(let ((.def_827 (and .def_786 .def_826)))
(let ((.def_68 (<= b.speed_loss__AT0 (/ 1 2))))
(let ((.def_65 (<= (/ 1 10) b.speed_loss__AT0)))
(let ((.def_69 (and .def_65 .def_68)))
(let ((.def_828 (and .def_69 .def_827)))
(let ((.def_305 (not b.counter.0__AT1)))
(let ((.def_295 (not b.counter.1__AT1)))
(let ((.def_703 (and .def_295 .def_305)))
(let ((.def_300 (not b.counter.2__AT1)))
(let ((.def_704 (and .def_300 .def_703)))
(let ((.def_314 (not b.counter.3__AT1)))
(let ((.def_705 (and .def_314 .def_704)))
(let ((.def_700 (and .def_69 .def_699)))
(let ((.def_695 (not b.EVENT.0__AT2)))
(let ((.def_693 (not b.EVENT.1__AT2)))
(let ((.def_696 (or .def_693 .def_695)))
(let ((.def_6 (not b.counter.0__AT2)))
(let ((.def_4 (not b.counter.1__AT2)))
(let ((.def_686 (or .def_4 .def_6)))
(let ((.def_690 (or b.counter.3__AT2 .def_686)))
(let ((.def_687 (or b.counter.2__AT2 .def_686)))
(let ((.def_9 (not b.counter.2__AT2)))
(let ((.def_685 (or .def_6 .def_9)))
(let ((.def_688 (and .def_685 .def_687)))
(let ((.def_12 (not b.counter.3__AT2)))
(let ((.def_689 (or .def_12 .def_688)))
(let ((.def_691 (and .def_689 .def_690)))
(let ((.def_697 (and .def_691 .def_696)))
(let ((.def_701 (and .def_697 .def_700)))
(let ((.def_680 (<= 0.0 b.delta__AT1)))
(let ((.def_392 (not b.EVENT.0__AT1)))
(let ((.def_390 (not b.EVENT.1__AT1)))
(let ((.def_524 (and .def_390 .def_392)))
(let ((.def_526 (not .def_524)))
(let ((.def_681 (or .def_526 .def_680)))
(let ((.def_682 (or b.EVENT.1__AT1 .def_681)))
(let ((.def_564 (= b.bool_atom__AT1 b.bool_atom__AT2)))
(let ((.def_560 (= b.counter.0__AT2 b.counter.0__AT1)))
(let ((.def_558 (= b.counter.1__AT2 b.counter.1__AT1)))
(let ((.def_556 (= b.counter.2__AT2 b.counter.2__AT1)))
(let ((.def_555 (= b.counter.3__AT2 b.counter.3__AT1)))
(let ((.def_557 (and .def_555 .def_556)))
(let ((.def_559 (and .def_557 .def_558)))
(let ((.def_561 (and .def_559 .def_560)))
(let ((.def_676 (and .def_561 .def_564)))
(let ((.def_677 (or .def_526 .def_676)))
(let ((.def_678 (or b.EVENT.1__AT1 .def_677)))
(let ((.def_664 (* (- 10.0) b.y__AT2)))
(let ((.def_405 (* b.delta__AT1 b.delta__AT1)))
(let ((.def_412 (* (- 49.0) .def_405)))
(let ((.def_668 (+ .def_412 .def_664)))
(let ((.def_403 (* b.speed_y__AT1 b.delta__AT1)))
(let ((.def_404 (* 10.0 .def_403)))
(let ((.def_669 (+ .def_404 .def_668)))
(let ((.def_426 (* 10.0 b.y__AT1)))
(let ((.def_670 (+ .def_426 .def_669)))
(let ((.def_671 (= .def_670 0.0 )))
(let ((.def_659 (* (- 5.0) b.speed_y__AT2)))
(let ((.def_443 (* (- 49.0) b.delta__AT1)))
(let ((.def_660 (+ .def_443 .def_659)))
(let ((.def_445 (* 5.0 b.speed_y__AT1)))
(let ((.def_661 (+ .def_445 .def_660)))
(let ((.def_662 (= .def_661 0.0 )))
(let ((.def_651 (* b.speed_x__AT1 b.delta__AT1)))
(let ((.def_655 (+ .def_652 .def_651)))
(let ((.def_656 (+ b.x__AT1 .def_655)))
(let ((.def_657 (= .def_656 0.0 )))
(let ((.def_550 (= b.speed_x__AT1 b.speed_x__AT2)))
(let ((.def_658 (and .def_550 .def_657)))
(let ((.def_663 (and .def_658 .def_662)))
(let ((.def_672 (and .def_663 .def_671)))
(let ((.def_673 (or .def_526 .def_672)))
(let ((.def_547 (= b.y__AT1 b.y__AT2)))
(let ((.def_544 (= b.x__AT1 b.x__AT2)))
(let ((.def_645 (and .def_544 .def_547)))
(let ((.def_646 (and .def_550 .def_645)))
(let ((.def_553 (= b.speed_y__AT1 b.speed_y__AT2)))
(let ((.def_647 (and .def_553 .def_646)))
(let ((.def_642 (= b.delta__AT1 0.0 )))
(let ((.def_643 (and .def_524 .def_642)))
(let ((.def_644 (not .def_643)))
(let ((.def_648 (or .def_644 .def_647)))
(let ((.def_649 (or b.EVENT.1__AT1 .def_648)))
(let ((.def_634 (and .def_550 .def_553)))
(let ((.def_635 (and .def_561 .def_634)))
(let ((.def_636 (or b.bool_atom__AT1 .def_635)))
(let ((.def_610 (or .def_6 b.counter.0__AT1)))
(let ((.def_609 (or b.counter.0__AT2 .def_305)))
(let ((.def_611 (and .def_609 .def_610)))
(let ((.def_612 (and .def_4 .def_611)))
(let ((.def_613 (or b.counter.1__AT1 .def_612)))
(let ((.def_608 (or b.counter.1__AT2 .def_295)))
(let ((.def_614 (and .def_608 .def_613)))
(let ((.def_625 (and .def_9 .def_614)))
(let ((.def_626 (or b.counter.2__AT1 .def_625)))
(let ((.def_620 (and .def_4 .def_305)))
(let ((.def_621 (or b.counter.1__AT1 .def_620)))
(let ((.def_622 (and .def_608 .def_621)))
(let ((.def_623 (and b.counter.2__AT2 .def_622)))
(let ((.def_624 (or .def_300 .def_623)))
(let ((.def_627 (and .def_624 .def_626)))
(let ((.def_628 (and b.counter.3__AT2 .def_627)))
(let ((.def_629 (or b.counter.3__AT1 .def_628)))
(let ((.def_615 (and b.counter.2__AT2 .def_614)))
(let ((.def_616 (or b.counter.2__AT1 .def_615)))
(let ((.def_604 (or b.counter.1__AT2 b.counter.1__AT1)))
(let ((.def_602 (and .def_4 b.counter.0__AT2)))
(let ((.def_603 (or .def_295 .def_602)))
(let ((.def_605 (and .def_603 .def_604)))
(let ((.def_606 (and .def_9 .def_605)))
(let ((.def_607 (or .def_300 .def_606)))
(let ((.def_617 (and .def_607 .def_616)))
(let ((.def_618 (and .def_12 .def_617)))
(let ((.def_619 (or .def_314 .def_618)))
(let ((.def_630 (and .def_619 .def_629)))
(let ((.def_281 (* b.speed_y__AT1 b.speed_y__AT1)))
(let ((.def_279 (* b.speed_x__AT1 b.speed_x__AT1)))
(let ((.def_594 (+ .def_279 .def_281)))
(let ((.def_267 (* (- 1.0) b.speed_loss__AT0)))
(let ((.def_268 (+ 1.0 .def_267)))
(let ((.def_284 (* .def_268 .def_268)))
(let ((.def_595 (* .def_284 .def_594)))
(let ((.def_597 (* (- 1.0) .def_595)))
(let ((.def_591 (* b.speed_y__AT2 b.speed_y__AT2)))
(let ((.def_598 (+ .def_591 .def_597)))
(let ((.def_589 (* b.speed_x__AT2 b.speed_x__AT2)))
(let ((.def_599 (+ .def_589 .def_598)))
(let ((.def_600 (= .def_599 0.0 )))
(let ((.def_582 (* b.speed_y__AT1 .def_268)))
(let ((.def_264 (* (- 2.0) b.x__AT1)))
(let ((.def_265 (* (- 1.0) .def_264)))
(let ((.def_579 (* .def_265 .def_268)))
(let ((.def_580 (* b.speed_x__AT1 .def_579)))
(let ((.def_585 (+ .def_580 .def_582)))
(let ((.def_576 (* (- 2.0) b.x__AT2)))
(let ((.def_577 (* (- 1.0) .def_576)))
(let ((.def_578 (* b.speed_x__AT2 .def_577)))
(let ((.def_586 (+ .def_578 .def_585)))
(let ((.def_587 (+ b.speed_y__AT2 .def_586)))
(let ((.def_588 (= .def_587 0.0 )))
(let ((.def_601 (and .def_588 .def_600)))
(let ((.def_631 (and .def_601 .def_630)))
(let ((.def_575 (not b.bool_atom__AT1)))
(let ((.def_632 (or .def_575 .def_631)))
(let ((.def_266 (* b.speed_x__AT1 .def_265)))
(let ((.def_570 (+ b.speed_y__AT1 .def_266)))
(let ((.def_571 (<= 0.0 .def_570)))
(let ((.def_572 (not .def_571)))
(let ((.def_349 (* (- 1.0) b.x__AT1)))
(let ((.def_395 (* b.x__AT1 .def_349)))
(let ((.def_569 (= b.y__AT1 .def_395)))
(let ((.def_573 (and .def_569 .def_572)))
(let ((.def_574 (= b.bool_atom__AT1 .def_573)))
(let ((.def_633 (and .def_574 .def_632)))
(let ((.def_637 (and .def_633 .def_636)))
(let ((.def_638 (and .def_544 .def_637)))
(let ((.def_639 (and .def_547 .def_638)))
(let ((.def_640 (or .def_524 .def_639)))
(let ((.def_641 (or b.EVENT.1__AT1 .def_640)))
(let ((.def_650 (and .def_641 .def_649)))
(let ((.def_674 (and .def_650 .def_673)))
(let ((.def_531 (= b.time__AT1 b.time__AT2)))
(let ((.def_545 (and .def_531 .def_544)))
(let ((.def_548 (and .def_545 .def_547)))
(let ((.def_551 (and .def_548 .def_550)))
(let ((.def_554 (and .def_551 .def_553)))
(let ((.def_562 (and .def_554 .def_561)))
(let ((.def_565 (and .def_562 .def_564)))
(let ((.def_566 (or .def_390 .def_565)))
(let ((.def_534 (* (- 1.0) b.time__AT2)))
(let ((.def_537 (+ b.delta__AT1 .def_534)))
(let ((.def_538 (+ b.time__AT1 .def_537)))
(let ((.def_539 (= .def_538 0.0 )))
(let ((.def_540 (or .def_526 .def_539)))
(let ((.def_541 (or b.EVENT.1__AT1 .def_540)))
(let ((.def_532 (or .def_524 .def_531)))
(let ((.def_533 (or b.EVENT.1__AT1 .def_532)))
(let ((.def_542 (and .def_533 .def_541)))
(let ((.def_567 (and .def_542 .def_566)))
(let ((.def_528 (= .def_526 b.event_is_timed__AT2)))
(let ((.def_525 (= b.event_is_timed__AT1 .def_524)))
(let ((.def_529 (and .def_525 .def_528)))
(let ((.def_568 (and .def_529 .def_567)))
(let ((.def_675 (and .def_568 .def_674)))
(let ((.def_679 (and .def_675 .def_678)))
(let ((.def_683 (and .def_679 .def_682)))
(let ((.def_684 (and .def_390 .def_683)))
(let ((.def_702 (and .def_684 .def_701)))
(let ((.def_706 (and .def_702 .def_705)))
(let ((.def_406 (* (- 1.0) b.speed_x__AT1)))
(let ((.def_407 (* b.speed_x__AT1 .def_406)))
(let ((.def_408 (* (- 1.0) .def_407)))
(let ((.def_436 (* 2.0 .def_408)))
(let ((.def_494 (* (- 1.0) .def_436)))
(let ((.def_495 (* b.delta__AT1 .def_494)))
(let ((.def_496 (* (- 5.0) .def_495)))
(let ((.def_419 (* b.speed_x__AT1 .def_349)))
(let ((.def_441 (* (- 5.0) .def_419)))
(let ((.def_501 (+ .def_441 .def_496)))
(let ((.def_414 (* b.x__AT1 .def_406)))
(let ((.def_439 (* (- 5.0) .def_414)))
(let ((.def_502 (+ .def_439 .def_501)))
(let ((.def_503 (+ .def_443 .def_502)))
(let ((.def_504 (+ .def_445 .def_503)))
(let ((.def_507 (<= 0.0 .def_504)))
(let ((.def_514 (not .def_507)))
(let ((.def_420 (* (- 1.0) .def_419)))
(let ((.def_415 (* (- 1.0) .def_414)))
(let ((.def_453 (+ .def_415 .def_420)))
(let ((.def_454 (+ b.speed_y__AT1 .def_453)))
(let ((.def_455 (<= 0.0 .def_454)))
(let ((.def_515 (or .def_455 .def_514)))
(let ((.def_505 (<= .def_504 0.0 )))
(let ((.def_469 (<= .def_454 0.0 )))
(let ((.def_470 (not .def_469)))
(let ((.def_513 (or .def_470 .def_505)))
(let ((.def_516 (and .def_513 .def_515)))
(let ((.def_485 (<= .def_407 (- (/ 49 10)))))
(let ((.def_517 (or .def_485 .def_516)))
(let ((.def_509 (not .def_505)))
(let ((.def_510 (or .def_469 .def_509)))
(let ((.def_456 (not .def_455)))
(let ((.def_508 (or .def_456 .def_507)))
(let ((.def_511 (and .def_508 .def_510)))
(let ((.def_490 (<= (- (/ 49 10)) .def_407)))
(let ((.def_512 (or .def_490 .def_511)))
(let ((.def_518 (and .def_512 .def_517)))
(let ((.def_506 (and .def_469 .def_505)))
(let ((.def_519 (and .def_506 .def_518)))
(let ((.def_437 (* b.delta__AT1 .def_436)))
(let ((.def_438 (* 5.0 .def_437)))
(let ((.def_447 (+ .def_441 .def_438)))
(let ((.def_448 (+ .def_439 .def_447)))
(let ((.def_449 (+ .def_443 .def_448)))
(let ((.def_450 (+ .def_445 .def_449)))
(let ((.def_467 (<= .def_450 0.0 )))
(let ((.def_468 (not .def_467)))
(let ((.def_488 (or .def_468 .def_469)))
(let ((.def_451 (<= 0.0 .def_450)))
(let ((.def_487 (or .def_451 .def_456)))
(let ((.def_489 (and .def_487 .def_488)))
(let ((.def_491 (or .def_489 .def_490)))
(let ((.def_452 (not .def_451)))
(let ((.def_483 (or .def_452 .def_455)))
(let ((.def_482 (or .def_467 .def_470)))
(let ((.def_484 (and .def_482 .def_483)))
(let ((.def_486 (or .def_484 .def_485)))
(let ((.def_492 (and .def_486 .def_491)))
(let ((.def_481 (and .def_451 .def_455)))
(let ((.def_493 (and .def_481 .def_492)))
(let ((.def_520 (or .def_493 .def_519)))
(let ((.def_421 (* b.delta__AT1 .def_420)))
(let ((.def_422 (* 10.0 .def_421)))
(let ((.def_416 (* b.delta__AT1 .def_415)))
(let ((.def_417 (* 10.0 .def_416)))
(let ((.def_428 (+ .def_417 .def_422)))
(let ((.def_409 (* .def_405 .def_408)))
(let ((.def_410 (* 10.0 .def_409)))
(let ((.def_429 (+ .def_410 .def_428)))
(let ((.def_430 (+ .def_412 .def_429)))
(let ((.def_431 (+ .def_404 .def_430)))
(let ((.def_424 (* (- 10.0) .def_395)))
(let ((.def_432 (+ .def_424 .def_431)))
(let ((.def_433 (+ .def_426 .def_432)))
(let ((.def_461 (<= .def_433 0.0 )))
(let ((.def_475 (not .def_461)))
(let ((.def_459 (<= b.y__AT1 .def_395)))
(let ((.def_476 (or .def_459 .def_475)))
(let ((.def_396 (<= .def_395 b.y__AT1)))
(let ((.def_473 (not .def_396)))
(let ((.def_434 (<= 0.0 .def_433)))
(let ((.def_474 (or .def_434 .def_473)))
(let ((.def_477 (and .def_474 .def_476)))
(let ((.def_471 (or .def_468 .def_470)))
(let ((.def_472 (not .def_471)))
(let ((.def_478 (or .def_472 .def_477)))
(let ((.def_463 (not .def_434)))
(let ((.def_464 (or .def_396 .def_463)))
(let ((.def_460 (not .def_459)))
(let ((.def_462 (or .def_460 .def_461)))
(let ((.def_465 (and .def_462 .def_464)))
(let ((.def_457 (or .def_452 .def_456)))
(let ((.def_458 (not .def_457)))
(let ((.def_466 (or .def_458 .def_465)))
(let ((.def_479 (and .def_466 .def_478)))
(let ((.def_435 (and .def_396 .def_434)))
(let ((.def_480 (and .def_435 .def_479)))
(let ((.def_521 (and .def_480 .def_520)))
(let ((.def_522 (and .def_69 .def_521)))
(let ((.def_397 (and .def_69 .def_396)))
(let ((.def_393 (or .def_390 .def_392)))
(let ((.def_383 (or .def_295 .def_305)))
(let ((.def_387 (or b.counter.3__AT1 .def_383)))
(let ((.def_384 (or b.counter.2__AT1 .def_383)))
(let ((.def_382 (or .def_300 .def_305)))
(let ((.def_385 (and .def_382 .def_384)))
(let ((.def_386 (or .def_314 .def_385)))
(let ((.def_388 (and .def_386 .def_387)))
(let ((.def_394 (and .def_388 .def_393)))
(let ((.def_398 (and .def_394 .def_397)))
(let ((.def_377 (<= 0.0 b.delta__AT0)))
(let ((.def_56 (not b.EVENT.0__AT0)))
(let ((.def_54 (not b.EVENT.1__AT0)))
(let ((.def_203 (and .def_54 .def_56)))
(let ((.def_205 (not .def_203)))
(let ((.def_378 (or .def_205 .def_377)))
(let ((.def_379 (or b.EVENT.1__AT0 .def_378)))
(let ((.def_248 (= b.bool_atom__AT0 b.bool_atom__AT1)))
(let ((.def_243 (= b.counter.0__AT0 b.counter.0__AT1)))
(let ((.def_240 (= b.counter.1__AT0 b.counter.1__AT1)))
(let ((.def_237 (= b.counter.2__AT0 b.counter.2__AT1)))
(let ((.def_235 (= b.counter.3__AT0 b.counter.3__AT1)))
(let ((.def_238 (and .def_235 .def_237)))
(let ((.def_241 (and .def_238 .def_240)))
(let ((.def_244 (and .def_241 .def_243)))
(let ((.def_373 (and .def_244 .def_248)))
(let ((.def_374 (or .def_205 .def_373)))
(let ((.def_375 (or b.EVENT.1__AT0 .def_374)))
(let ((.def_362 (* (- 10.0) b.y__AT1)))
(let ((.def_77 (* b.delta__AT0 b.delta__AT0)))
(let ((.def_86 (* (- 49.0) .def_77)))
(let ((.def_365 (+ .def_86 .def_362)))
(let ((.def_75 (* b.speed_y__AT0 b.delta__AT0)))
(let ((.def_76 (* 10.0 .def_75)))
(let ((.def_366 (+ .def_76 .def_365)))
(let ((.def_101 (* 10.0 b.y__AT0)))
(let ((.def_367 (+ .def_101 .def_366)))
(let ((.def_368 (= .def_367 0.0 )))
(let ((.def_356 (* (- 5.0) b.speed_y__AT1)))
(let ((.def_120 (* (- 49.0) b.delta__AT0)))
(let ((.def_357 (+ .def_120 .def_356)))
(let ((.def_122 (* 5.0 b.speed_y__AT0)))
(let ((.def_358 (+ .def_122 .def_357)))
(let ((.def_359 (= .def_358 0.0 )))
(let ((.def_348 (* b.speed_x__AT0 b.delta__AT0)))
(let ((.def_352 (+ .def_349 .def_348)))
(let ((.def_353 (+ b.x__AT0 .def_352)))
(let ((.def_354 (= .def_353 0.0 )))
(let ((.def_229 (= b.speed_x__AT0 b.speed_x__AT1)))
(let ((.def_355 (and .def_229 .def_354)))
(let ((.def_360 (and .def_355 .def_359)))
(let ((.def_369 (and .def_360 .def_368)))
(let ((.def_370 (or .def_205 .def_369)))
(let ((.def_226 (= b.y__AT0 b.y__AT1)))
(let ((.def_223 (= b.x__AT0 b.x__AT1)))
(let ((.def_342 (and .def_223 .def_226)))
(let ((.def_343 (and .def_229 .def_342)))
(let ((.def_232 (= b.speed_y__AT0 b.speed_y__AT1)))
(let ((.def_344 (and .def_232 .def_343)))
(let ((.def_339 (= b.delta__AT0 0.0 )))
(let ((.def_340 (and .def_203 .def_339)))
(let ((.def_341 (not .def_340)))
(let ((.def_345 (or .def_341 .def_344)))
(let ((.def_346 (or b.EVENT.1__AT0 .def_345)))
(let ((.def_331 (and .def_229 .def_232)))
(let ((.def_332 (and .def_244 .def_331)))
(let ((.def_333 (or b.bool_atom__AT0 .def_332)))
(let ((.def_306 (or b.counter.0__AT0 .def_305)))
(let ((.def_37 (not b.counter.0__AT0)))
(let ((.def_304 (or .def_37 b.counter.0__AT1)))
(let ((.def_307 (and .def_304 .def_306)))
(let ((.def_308 (and .def_295 .def_307)))
(let ((.def_309 (or b.counter.1__AT0 .def_308)))
(let ((.def_35 (not b.counter.1__AT0)))
(let ((.def_303 (or .def_35 b.counter.1__AT1)))
(let ((.def_310 (and .def_303 .def_309)))
(let ((.def_322 (and .def_300 .def_310)))
(let ((.def_323 (or b.counter.2__AT0 .def_322)))
(let ((.def_317 (and .def_37 .def_295)))
(let ((.def_318 (or b.counter.1__AT0 .def_317)))
(let ((.def_319 (and .def_303 .def_318)))
(let ((.def_320 (and b.counter.2__AT1 .def_319)))
(let ((.def_40 (not b.counter.2__AT0)))
(let ((.def_321 (or .def_40 .def_320)))
(let ((.def_324 (and .def_321 .def_323)))
(let ((.def_325 (and b.counter.3__AT1 .def_324)))
(let ((.def_326 (or b.counter.3__AT0 .def_325)))
(let ((.def_311 (and b.counter.2__AT1 .def_310)))
(let ((.def_312 (or b.counter.2__AT0 .def_311)))
(let ((.def_298 (or b.counter.1__AT0 b.counter.1__AT1)))
(let ((.def_296 (and b.counter.0__AT1 .def_295)))
(let ((.def_297 (or .def_35 .def_296)))
(let ((.def_299 (and .def_297 .def_298)))
(let ((.def_301 (and .def_299 .def_300)))
(let ((.def_302 (or .def_40 .def_301)))
(let ((.def_313 (and .def_302 .def_312)))
(let ((.def_315 (and .def_313 .def_314)))
(let ((.def_43 (not b.counter.3__AT0)))
(let ((.def_316 (or .def_43 .def_315)))
(let ((.def_327 (and .def_316 .def_326)))
(let ((.def_286 (* b.speed_y__AT0 b.speed_y__AT0)))
(let ((.def_285 (* b.speed_x__AT0 b.speed_x__AT0)))
(let ((.def_287 (+ .def_285 .def_286)))
(let ((.def_288 (* .def_284 .def_287)))
(let ((.def_290 (* (- 1.0) .def_288)))
(let ((.def_291 (+ .def_281 .def_290)))
(let ((.def_292 (+ .def_279 .def_291)))
(let ((.def_293 (= .def_292 0.0 )))
(let ((.def_272 (* b.speed_y__AT0 .def_268)))
(let ((.def_255 (* (- 2.0) b.x__AT0)))
(let ((.def_256 (* (- 1.0) .def_255)))
(let ((.def_269 (* .def_256 .def_268)))
(let ((.def_270 (* b.speed_x__AT0 .def_269)))
(let ((.def_275 (+ .def_270 .def_272)))
(let ((.def_276 (+ .def_266 .def_275)))
(let ((.def_277 (+ b.speed_y__AT1 .def_276)))
(let ((.def_278 (= .def_277 0.0 )))
(let ((.def_294 (and .def_278 .def_293)))
(let ((.def_328 (and .def_294 .def_327)))
(let ((.def_263 (not b.bool_atom__AT0)))
(let ((.def_329 (or .def_263 .def_328)))
(let ((.def_257 (* b.speed_x__AT0 .def_256)))
(let ((.def_258 (+ b.speed_y__AT0 .def_257)))
(let ((.def_259 (<= 0.0 .def_258)))
(let ((.def_260 (not .def_259)))
(let ((.def_60 (* (- 1.0) b.x__AT0)))
(let ((.def_61 (* b.x__AT0 .def_60)))
(let ((.def_253 (= b.y__AT0 .def_61)))
(let ((.def_261 (and .def_253 .def_260)))
(let ((.def_262 (= b.bool_atom__AT0 .def_261)))
(let ((.def_330 (and .def_262 .def_329)))
(let ((.def_334 (and .def_330 .def_333)))
(let ((.def_335 (and .def_223 .def_334)))
(let ((.def_336 (and .def_226 .def_335)))
(let ((.def_337 (or .def_203 .def_336)))
(let ((.def_338 (or b.EVENT.1__AT0 .def_337)))
(let ((.def_347 (and .def_338 .def_346)))
(let ((.def_371 (and .def_347 .def_370)))
(let ((.def_210 (= b.time__AT0 b.time__AT1)))
(let ((.def_224 (and .def_210 .def_223)))
(let ((.def_227 (and .def_224 .def_226)))
(let ((.def_230 (and .def_227 .def_229)))
(let ((.def_233 (and .def_230 .def_232)))
(let ((.def_245 (and .def_233 .def_244)))
(let ((.def_249 (and .def_245 .def_248)))
(let ((.def_250 (or .def_54 .def_249)))
(let ((.def_213 (* (- 1.0) b.time__AT1)))
(let ((.def_216 (+ b.delta__AT0 .def_213)))
(let ((.def_217 (+ b.time__AT0 .def_216)))
(let ((.def_218 (= .def_217 0.0 )))
(let ((.def_219 (or .def_205 .def_218)))
(let ((.def_220 (or b.EVENT.1__AT0 .def_219)))
(let ((.def_211 (or .def_203 .def_210)))
(let ((.def_212 (or b.EVENT.1__AT0 .def_211)))
(let ((.def_221 (and .def_212 .def_220)))
(let ((.def_251 (and .def_221 .def_250)))
(let ((.def_207 (= .def_205 b.event_is_timed__AT1)))
(let ((.def_204 (= b.event_is_timed__AT0 .def_203)))
(let ((.def_208 (and .def_204 .def_207)))
(let ((.def_252 (and .def_208 .def_251)))
(let ((.def_372 (and .def_252 .def_371)))
(let ((.def_376 (and .def_372 .def_375)))
(let ((.def_380 (and .def_376 .def_379)))
(let ((.def_381 (and .def_54 .def_380)))
(let ((.def_399 (and .def_381 .def_398)))
(let ((.def_38 (and .def_35 .def_37)))
(let ((.def_41 (and .def_38 .def_40)))
(let ((.def_44 (and .def_41 .def_43)))
(let ((.def_400 (and .def_44 .def_399)))
(let ((.def_78 (* (- 1.0) b.speed_x__AT0)))
(let ((.def_79 (* b.speed_x__AT0 .def_78)))
(let ((.def_80 (* (- 1.0) .def_79)))
(let ((.def_111 (* 2.0 .def_80)))
(let ((.def_173 (* (- 1.0) .def_111)))
(let ((.def_174 (* b.delta__AT0 .def_173)))
(let ((.def_175 (* (- 5.0) .def_174)))
(let ((.def_93 (* b.speed_x__AT0 .def_60)))
(let ((.def_118 (* (- 5.0) .def_93)))
(let ((.def_180 (+ .def_118 .def_175)))
(let ((.def_88 (* b.x__AT0 .def_78)))
(let ((.def_116 (* (- 5.0) .def_88)))
(let ((.def_181 (+ .def_116 .def_180)))
(let ((.def_182 (+ .def_120 .def_181)))
(let ((.def_183 (+ .def_122 .def_182)))
(let ((.def_186 (<= 0.0 .def_183)))
(let ((.def_193 (not .def_186)))
(let ((.def_94 (* (- 1.0) .def_93)))
(let ((.def_89 (* (- 1.0) .def_88)))
(let ((.def_130 (+ .def_89 .def_94)))
(let ((.def_131 (+ b.speed_y__AT0 .def_130)))
(let ((.def_132 (<= 0.0 .def_131)))
(let ((.def_194 (or .def_132 .def_193)))
(let ((.def_184 (<= .def_183 0.0 )))
(let ((.def_146 (<= .def_131 0.0 )))
(let ((.def_147 (not .def_146)))
(let ((.def_192 (or .def_147 .def_184)))
(let ((.def_195 (and .def_192 .def_194)))
(let ((.def_164 (<= .def_79 (- (/ 49 10)))))
(let ((.def_196 (or .def_164 .def_195)))
(let ((.def_188 (not .def_184)))
(let ((.def_189 (or .def_146 .def_188)))
(let ((.def_133 (not .def_132)))
(let ((.def_187 (or .def_133 .def_186)))
(let ((.def_190 (and .def_187 .def_189)))
(let ((.def_169 (<= (- (/ 49 10)) .def_79)))
(let ((.def_191 (or .def_169 .def_190)))
(let ((.def_197 (and .def_191 .def_196)))
(let ((.def_185 (and .def_146 .def_184)))
(let ((.def_198 (and .def_185 .def_197)))
(let ((.def_112 (* b.delta__AT0 .def_111)))
(let ((.def_114 (* 5.0 .def_112)))
(let ((.def_124 (+ .def_118 .def_114)))
(let ((.def_125 (+ .def_116 .def_124)))
(let ((.def_126 (+ .def_120 .def_125)))
(let ((.def_127 (+ .def_122 .def_126)))
(let ((.def_144 (<= .def_127 0.0 )))
(let ((.def_145 (not .def_144)))
(let ((.def_167 (or .def_145 .def_146)))
(let ((.def_128 (<= 0.0 .def_127)))
(let ((.def_166 (or .def_128 .def_133)))
(let ((.def_168 (and .def_166 .def_167)))
(let ((.def_170 (or .def_168 .def_169)))
(let ((.def_129 (not .def_128)))
(let ((.def_160 (or .def_129 .def_132)))
(let ((.def_159 (or .def_144 .def_147)))
(let ((.def_161 (and .def_159 .def_160)))
(let ((.def_165 (or .def_161 .def_164)))
(let ((.def_171 (and .def_165 .def_170)))
(let ((.def_158 (and .def_128 .def_132)))
(let ((.def_172 (and .def_158 .def_171)))
(let ((.def_199 (or .def_172 .def_198)))
(let ((.def_95 (* b.delta__AT0 .def_94)))
(let ((.def_96 (* 10.0 .def_95)))
(let ((.def_90 (* b.delta__AT0 .def_89)))
(let ((.def_91 (* 10.0 .def_90)))
(let ((.def_103 (+ .def_91 .def_96)))
(let ((.def_81 (* .def_77 .def_80)))
(let ((.def_82 (* 10.0 .def_81)))
(let ((.def_104 (+ .def_82 .def_103)))
(let ((.def_105 (+ .def_86 .def_104)))
(let ((.def_106 (+ .def_76 .def_105)))
(let ((.def_99 (* (- 10.0) .def_61)))
(let ((.def_107 (+ .def_99 .def_106)))
(let ((.def_108 (+ .def_101 .def_107)))
(let ((.def_138 (<= .def_108 0.0 )))
(let ((.def_152 (not .def_138)))
(let ((.def_136 (<= b.y__AT0 .def_61)))
(let ((.def_153 (or .def_136 .def_152)))
(let ((.def_62 (<= .def_61 b.y__AT0)))
(let ((.def_150 (not .def_62)))
(let ((.def_109 (<= 0.0 .def_108)))
(let ((.def_151 (or .def_109 .def_150)))
(let ((.def_154 (and .def_151 .def_153)))
(let ((.def_148 (or .def_145 .def_147)))
(let ((.def_149 (not .def_148)))
(let ((.def_155 (or .def_149 .def_154)))
(let ((.def_140 (not .def_109)))
(let ((.def_141 (or .def_62 .def_140)))
(let ((.def_137 (not .def_136)))
(let ((.def_139 (or .def_137 .def_138)))
(let ((.def_142 (and .def_139 .def_141)))
(let ((.def_134 (or .def_129 .def_133)))
(let ((.def_135 (not .def_134)))
(let ((.def_143 (or .def_135 .def_142)))
(let ((.def_156 (and .def_143 .def_155)))
(let ((.def_110 (and .def_62 .def_109)))
(let ((.def_157 (and .def_110 .def_156)))
(let ((.def_200 (and .def_157 .def_199)))
(let ((.def_201 (and .def_69 .def_200)))
(let ((.def_70 (and .def_62 .def_69)))
(let ((.def_57 (or .def_54 .def_56)))
(let ((.def_47 (or .def_35 .def_37)))
(let ((.def_51 (or b.counter.3__AT0 .def_47)))
(let ((.def_48 (or b.counter.2__AT0 .def_47)))
(let ((.def_46 (or .def_37 .def_40)))
(let ((.def_49 (and .def_46 .def_48)))
(let ((.def_50 (or .def_43 .def_49)))
(let ((.def_52 (and .def_50 .def_51)))
(let ((.def_58 (and .def_52 .def_57)))
(let ((.def_71 (and .def_58 .def_70)))
(let ((.def_32 (= b.speed_y__AT0 1.0 )))
(let ((.def_29 (= b.speed_x__AT0 1.0 )))
(let ((.def_25 (= b.y__AT0 10.0 )))
(let ((.def_21 (= b.x__AT0 0.0 )))
(let ((.def_17 (= b.time__AT0 0.0 )))
(let ((.def_19 (and .def_17 b.event_is_timed__AT0)))
(let ((.def_22 (and .def_19 .def_21)))
(let ((.def_26 (and .def_22 .def_25)))
(let ((.def_30 (and .def_26 .def_29)))
(let ((.def_33 (and .def_30 .def_32)))
(let ((.def_45 (and .def_33 .def_44)))
(let ((.def_72 (and .def_45 .def_71)))
(let ((.def_7 (and .def_4 .def_6)))
(let ((.def_10 (and .def_7 .def_9)))
(let ((.def_13 (and .def_10 .def_12)))
(let ((.def_14 (not .def_13)))
(let ((.def_73 (and .def_14 .def_72)))
(let ((.def_202 (and .def_73 .def_201)))
(let ((.def_401 (and .def_202 .def_400)))
(let ((.def_523 (and .def_401 .def_522)))
(let ((.def_707 (and .def_523 .def_706)))
(let ((.def_829 (and .def_707 .def_828)))
.def_829))))))))))))))))))))))))))))))))))))))))))))))))))))))))))))))))))))))))))))))))))))))))))))))))))))))))))))))))))))))))))))))))))))))))))))))))))))))))))))))))))))))))))))))))))))))))))))))))))))))))))))))))))))))))))))))))))))))))))))))))))))))))))))))))))))))))))))))))))))))))))))))))))))))))))))))))))))))))))))))))))))))))))))))))))))))))))))))))))))))))))))))))))))))))))))))))))))))))))))))))))))))))))))))))))))))))))))))))))))))))))))))))))))))))))))))))))))))))))))))))))))))))))))))))))))))))))))))))))))))))))))))))))))))))))))))))))))))))))))))))))))))))))))))))))))))))))))))))))))))))))))))))))))))))))))))))))))))))))))))))))))))))))))))))))))))))))))))))))))))))))))))))))))))))))))
(check-sat)
(exit)
